BN
1
0	0	0	
0.5	0.5	0	
0	0	1	
B	N	
1	1	
direct
0	0	0	
0	0	0	
